Route #1: 4 92 182 195 57 133 40 147 31 108 56 45 85 165 177 65 128 168 99 94 151 160 53 32 38 114 86 117 23 52 74 112 109 189 125 192 101 50 33 157 66 
Route #2: 28 6 132 78 130 150 187 171 79 96 185 141 2 34 76 175 
Route #3: 84 199 127 118 105 88 69 176 113 134 58 191 87 71 144 123 137 13 8 1 60 75 97 30 64 67 
Route #4: 100 37 9 12 59 143 173 188 29 139 21 166 107 81 55 194 158 82 154 
Route #5: 140 54 89 155 115 121 11 17 174 
Route #6: 142 48 131 24 156 102 15 179 7 68 167 152 169 72 16 98 119 161 129 41 22 106 70 126 
Route #7: 153 49 14 47 200 103 3 180 136 43 124 18 183 196 184 190 27 51 61 198 111 95 44 90 110 178 80 145 91 116 148 83 36 
Route #8: 163 162 63 149 42 172 197 5 62 181 35 164 104 25 170 10 77 122 26 159 20 46 138 186 135 73 193 19 93 146 120 39 
Cost 2495.1
